Optimal - objective value 4.00000000
      0 x_0_0                     1                       0
      2 x_1_1                     1                       0
      5 x_2_2                     1                       0
      7 x_3_1                     1                       1
     10 x_4_0                     1                       0
     17 x_5_2                     1                       0
     27 x_6_6                     1                       0
     34 x_7_6                     1                       0
     42 x_8_6                     1                       0
     51 x_9_6                     1                       0
     57 x_10_2                    1                       0
